
  12    4
  10   10   10   10

   0   0   0   0   0   5 2 3 5 6 7 
   4  10  10  10  10   3 11 9 8 
   2  10  10  10  10   1 4 
   5  10  10  10  10   2 11 8 
   3  10  10  10  10   2 11 8 
   8  10  10  10  10   2 11 8 
   2  10  10  10  10   2 9 8 
   2  10  10  10  10   1 10 
   7  10  10  10  10   1 10 
   1  10  10  10  10   1 12
   4  10  10  10  10   1 12
   0   0   0   0   0   0 
